000 000 000 -99 -99 000 000 000 -99 -99 -99 -99 -99 000 000 -99 -99 -99 000 000 -99 -99 -99 -99 -99 000 000 000 -99 -99 000
-99 000 000 000 000 000 000 000 -99 -99 -99 -99 -99 000 000 000 -99 -99 -99 000 -99 000 000 -99 -99 000 000 000 -99 -99 000
-99 000 000 000 000 000 000 000 -99 -99 -99 -99 -99 -99 000 000 -99 -99 -99 -99 -99 000 000 -99 -99 000 000 000 000 -99 -99
-99 -99 000 000 000 000 000 -99 -99 -99 -99 000 000 -99 000 -99 -99 -99 -99 -99 -99 000 000 000 -99 000 000 000 000 -99 -99
000 000 000 000 000 000 000 000 000 000 -99 000 000 000 -99 000 -99 -99 -99 -99 -99 000 000 000 000 000 000 000 -99 -99 -99
000 000 000 000 000 000 000 000 -99 000 -99 -99 000 -99 -99 -99 -99 -99 -99 -99 -99 -99 000 000 000 -99 -99 000 -99 -99 -99
000 000 000 000 000 000 000 000 -99 -99 -99 -99 -99 000 -99 -99 -99 000 -99 -99 -99 -99 000 000 000 000 -99 -99 -99 -99 -99
000 000 000 000 000 000 000 000 000 -99 -99 -99 -99 -99 -99 -99 -99 000 -99 -99 000 000 -99 000 000 000 -99 -99 -99 000 000
000 000 000 000 000 000 000 000 000 000 000 -99 -99 -99 -99 -99 -99 000 000 -99 000 000 000 -99 000 000 000 -99 000 000 000
000 000 000 000 000 000 -99 -99 000 000 000 -99 -99 -99 -99 -99 -99 000 -99 -99 000 000 -99 -99 -99 000 000 000 -99 000 000
000 000 000 000 000 -99 000 000 000 000 000 000 -99 -99 -99 -99 000 000 -99 -99 000 000 000 -99 -99 000 000 000 000 000 000
000 000 000 000 000 000 -99 000 000 000 000 000 000 -99 -99 000 000 000 -99 -99 -99 000 000 -99 -99 000 000 000 000 000 000
000 000 000 000 000 000 -99 000 000 000 000 000 000 -99 -99 000 000 000 000 -99 -99 -99 -99 -99 -99 000 000 000 000 000 000
000 000 000 000 000 000 000 000 -99 -99 000 000 000 -99 -99 -99 000 000 000 -99 -99 -99 -99 -99 -99 000 000 -99 000 000 000
000 000 000 000 000 000 000 -99 000 -99 -99 -99 -99 000 -99 -99 -99 -99 -99 -99 -99 -99 -99 000 000 000 000 -99 000 000 000
000 000 000 000 000 000 000 -99 -99 -99 -99 -99 -99 000 000 -99 -99 000 -99 -99 -99 -99 000 000 000 000 000 -99 -99 000 000
000 000 -99 -99 -99 000 000 000 -99 -99 -99 -99 000 000 000 -99 -99 000 -99 -99 -99 -99 000 000 000 000 000 000 -99 -99 000
000 000 000 -99 -99 -99 000 000 000 -99 -99 -99 -99 000 000 -99 000 000 -99 -99 -99 -99 000 000 000 000 -99 000 -99 -99 000
000 000 000 000 -99 -99 -99 000 000 -99 -99 -99 -99 000 000 -99 000 000 -99 -99 -99 -99 -99 -99 -99 000 000 000 -99 -99 -99
000 000 000 000 000 -99 000 000 -99 -99 -99 -99 -99 -99 -99 000 000 000 -99 -99 -99 -99 -99 -99 -99 000 000 -99 -99 -99 -99
000 000 000 000 000 -99 000 000 000 -99 -99 -99 -99 -99 -99 000 000 000 -99 -99 -99 -99 -99 -99 -99 -99 000 -99 -99 -99 -99
000 000 000 000 000 000 000 000 000 000 -99 -99 -99 -99 -99 000 000 000 -99 -99 -99 -99 000 -99 -99 -99 -99 -99 -99 -99 -99
000 000 000 000 000 000 000 000 000 000 -99 -99 -99 -99 -99 000 000 000 -99 -99 000 -99 000 -99 -99 -99 -99 -99 -99 -99 -99
000 000 000 000 000 000 000 000 000 000 -99 -99 -99 -99 000 000 000 000 000 -99 000 000 000 -99 -99 -99 -99 -99 -99 -99 -99
-99 000 -99 000 000 000 000 000 000 000 000 -99 -99 -99 000 000 000 000 000 -99 000 000 000 -99 -99 -99 -99 -99 -99 -99 -99
000 -99 -99 000 000 000 001 000 000 000 -99 -99 -99 -99 -99 000 000 000 000 -99 000 -99 -99 -99 -99 -99 -99 -99 -99 -99 -99
000 -99 -99 000 000 001 001 000 000 000 000 -99 -99 -99 -99 000 000 000 000 -99 -99 000 -99 -99 -99 -99 -99 -99 -99 -99 -99
000 000 -99 000 000 001 001 001 001 000 -99 -99 -99 -99 000 000 000 000 -99 -99 -99 000 -99 -99 -99 -99 -99 -99 -99 -99 -99
000 000 000 000 000 001 003 003 002 000 000 -99 -99 -99 -99 000 000 000 -99 -99 -99 -99 -99 -99 -99 -99 -99 -99 -99 -99 -99
000 000 000 001 001 001 005 002 004 001 000 -99 -99 -99 -99 000 000 000 -99 -99 000 000 -99 -99 -99 000 -99 -99 -99 -99 -99
006 003 001 001 001 004 008 002 002 000 -99 -99 -99 000 -99 000 000 000 000 000 -99 000 -99 000 000 000 -99 -99 -99 -99 -99
006 006 001 002 002 005 004 003 000 000 -99 -99 -99 000 000 000 000 000 000 -99 000 000 000 000 000 000 -99 -99 -99 -99 -99
010 004 002 003 002 001 002 002 000 000 -99 -99 -99 000 000 000 000 000 000 -99 -99 000 000 000 -99 000 -99 000 000 -99 -99
002 004 001 001 000 001 002 001 000 000 -99 -99 -99 000 000 000 000 000 000 -99 000 000 000 -99 -99 000 000 000 000 -99 -99
000 000 000 000 000 000 002 000 002 000 000 -99 -99 000 000 000 000 000 -99 -99 000 000 000 000 000 000 000 000 000 -99 -99
000 000 000 000 000 000 000 000 000 000 000 -99 -99 000 000 000 000 000 -99 000 000 000 000 000 000 -99 000 000 000 000 000
000 000 -99 000 000 000 000 000 000 000 000 -99 -99 000 000 000 000 000 -99 000 000 000 -99 000 000 -99 000 000 000 000 000
000 000 -99 000 000 -99 -99 000 000 000 -99 -99 -99 000 000 000 000 000 -99 -99 000 000 -99 000 000 000 000 -99 000 000 -99
000 000 -99 -99 000 -99 000 000 -99 -99 -99 -99 -99 000 000 000 000 000 -99 -99 000 000 000 000 000 -99 -99 -99 -99 -99 -99
000 -99 -99 000 -99 -99 -99 000 -99 -99 -99 000 000 000 000 000 -99 -99 -99 -99 000 -99 000 000 -99 -99 -99 -99 -99 -99 -99
000 -99 -99 -99 -99 -99 -99 -99 -99 -99 -99 000 000 000 000 000 -99 -99 -99 000 000 -99 -99 -99 -99 -99 -99 -99 -99 -99 -99
000 000 -99 -99 -99 -99 -99 000 -99 000 000 -99 000 000 000 -99 -99 -99 -99 000 000 -99 -99 -99 -99 -99 -99 -99 -99 -99 -99
-99 -99 -99 -99 -99 -99 000 000 000 000 000 000 000 -99 000 000 000 -99 000 000 -99 -99 -99 -99 -99 -99 -99 -99 -99 -99 -99
000 -99 -99 -99 -99 000 000 001 001 001 000 000 000 000 000 000 000 000 000 000 000 000 -99 -99 -99 -99 -99 -99 -99 -99 -99
-99 -99 -99 -99 -99 000 003 003 005 003 004 003 000 000 000 000 000 000 000 000 000 000 -99 -99 -99 -99 -99 000 -99 -99 -99
-99 000 000 000 000 001 003 007 033 010 006 006 000 001 001 000 000 001 002 001 001 000 000 000 000 000 000 000 -99 -99 -99
000 000 002 000 000 001 004 011 029 029 010 005 000 001 004 000 001 006 011 005 001 000 000 000 000 000 000 000 000 000 -99
000 001 001 000 000 000 002 014 013 023 005 002 000 002 004 004 007 011 030 030 009 000 000 000 000 000 001 001 000 000 -99
000 000 000 000 -99 000 000 001 009 011 005 001 000 003 012 033 023 047 042 044 010 002 001 002 001 004 004 001 000 -99 -99
000 -99 000 000 -99 000 000 000 001 001 002 000 001 003 051 091 064 043 053 062 024 005 007 015 023 021 008 001 000 -99 -99
-99 -99 -99 -99 000 000 000 000 000 000 000 000 001 007 077 102 089 036 064 064 025 013 043 054 042 029 007 000 000 -99 -99
-99 -99 -99 -99 000 000 000 000 000 000 000 001 001 011 055 039 024 030 051 064 050 030 073 089 046 013 003 000 000 -99 -99
000 000 000 000 000 000 000 000 000 000 001 001 003 011 016 017 021 045 056 064 082 042 064 018 008 003 000 000 -99 -99 -99
000 000 000 000 000 003 001 001 001 000 001 002 003 003 009 008 045 047 061 054 024 037 016 004 002 000 000 -99 -99 -99 -99
001 003 004 001 005 012 003 003 003 000 000 001 003 004 003 009 017 016 048 012 005 006 004 001 000 000 -99 -99 -99 -99 -99
